
Gurobi 6.5.1 (linux64) logging started Fri May 20 11:54:21 2016


Gurobi 6.5.1 (linux64) logging started Fri May 20 11:58:33 2016

Optimize a model with 22 rows, 38 columns and 126 nonzeros
Coefficient statistics:
  Matrix range    [4e-03, 1e+00]
  Objective range [1e+00, 1e+00]
  Bounds range    [3e-01, 1e+05]
  RHS range       [1e+00, 1e+00]
Presolve removed 4 rows and 4 columns
Presolve time: 0.00s
Presolved: 18 rows, 34 columns, 90 nonzeros

Iteration    Objective       Primal Inf.    Dual Inf.      Time
       0   -1.0000000e+04   1.000002e+05   0.000000e+00      0s
      20   -1.8713889e-01   0.000000e+00   0.000000e+00      0s

Solved in 20 iterations and 0.01 seconds
Optimal objective -1.871388920e-01

Gurobi 6.5.1 (linux64) logging started Fri May 20 12:00:04 2016

Warning for adding constraints: zero or small (< 1e-13) coefficients, ignored
Optimize a model with 1906 rows, 3800 columns and 19809 nonzeros
Coefficient statistics:
  Matrix range    [4e-06, 1e+00]
  Objective range [1e+00, 1e+00]
  Bounds range    [1e+00, 1e+05]
  RHS range       [1e+00, 1e+00]
Presolve removed 277 rows and 544 columns
Presolve time: 0.01s
Presolved: 1629 rows, 3256 columns, 8817 nonzeros

Iteration    Objective       Primal Inf.    Dual Inf.      Time
       0   -4.6678185e+03   4.667818e+04   0.000000e+00      0s
    1844   -4.2275201e-04   0.000000e+00   0.000000e+00      0s

Solved in 1844 iterations and 0.07 seconds
Optimal objective -4.227520122e-04
